<instance format="XCSP3" type="CSP">
  <variables>
    <var id="x0"> 2 10 11 13 </var>
    <var id="x1"> 2 9 13 </var>
    <var id="x2"> 2 10 </var>
    <var id="x3"> 11..13 15 16 </var>
    <var id="x4"> 9 13 15 </var>
    <var id="x5"> 2 9 12 </var>
    <var id="x6"> 9 11 13 15 16 </var>
    <var id="x7"> 11 12 15 </var>
    <var id="x8"> 0 5 6 10 13 </var>
    <var id="x9"> 0 5 7 9 13 </var>
    <var id="x10"> 0 6 7 10 </var>
    <var id="x11"> 0 6 7 9 13 15 </var>
    <var id="x12"> 5 10 </var>
    <var id="x13"> 5 6 13 </var>
    <var id="x14"> 0 6 9 10 13 15 </var>
    <var id="x15"> 9 10 15 </var>
    <var id="x16"> 3 12 14 17 </var>
    <var id="x17"> 3 10 11 14 17 </var>
    <var id="x18"> 1 3 11 12 16 </var>
    <var id="x19"> 14 </var>
    <var id="x20"> 3 10..12 17 </var>
    <var id="x21"> 1 12 </var>
    <var id="x22"> 10 17 </var>
    <var id="x23"> 11 14 16 </var>
    <var id="x24"> 6 10 12 </var>
    <var id="x25"> 3 6 9 10 </var>
    <var id="x26"> 6 9 </var>
    <var id="x27"> 2 9 10 16 </var>
    <var id="x28"> 2 3 6 17 </var>
    <var id="x29"> 2 9 12 </var>
    <var id="x30"> 2 9 10 12 17 </var>
    <var id="x31"> 6 12 17 </var>
    <var id="x32"> 13 14 </var>
    <var id="x33"> 4 6 13 </var>
    <var id="x34"> 1 2 9 13 17 </var>
    <var id="x35"> 1 2 6 14 </var>
    <var id="x36"> 1 13 </var>
    <var id="x37"> 2 9 13 14 </var>
    <var id="x38"> 1 2 4 9 </var>
    <var id="x39"> 2 4 9 17 </var>
    <var id="x40"> 0 10 11 14 </var>
    <var id="x41"> 2 8 10 11 14 </var>
    <var id="x42"> 0..2 </var>
    <var id="x43"> 0 6 8 10 </var>
    <var id="x44"> 0..2 8 </var>
    <var id="x45"> 0 2 6 10 </var>
    <var id="x46"> 2 8 10 </var>
    <var id="x47"> 6 11 14 </var>
    <var id="x48"> 12 13 15 </var>
    <var id="x49"> 1 7 10 </var>
    <var id="x50"> 5 7 10 </var>
    <var id="x51"> 7 13 15 </var>
    <var id="x52"> 5 10..12 </var>
    <var id="x53"> 5 11 13 </var>
    <var id="x54"> 10 13 15 </var>
    <var id="x55"> 7 11 12 15 </var>
    <var id="x56"> 2 12 13 15 </var>
    <var id="x57"> 5 7 10 </var>
    <var id="x58"> 5 11..13 15 </var>
    <var id="x59"> 7 13 15 </var>
    <var id="x60"> 2 5 10..12 </var>
    <var id="x61"> 2 10 13 15 </var>
    <var id="x62"> 5 11 13 15 </var>
    <var as="x55" id="x63"/>
    <var id="x64"> 6 12 13 15 17 </var>
    <var id="x65"> 8 13 17 </var>
    <var id="x66"> 0 9 13 17 </var>
    <var id="x67"> 0 6 8 9 13 15 </var>
    <var id="x68"> 9 12 17 </var>
    <var id="x69"> 9 13 15 </var>
    <var id="x70"> 8 12 17 </var>
    <var id="x71"> 6 9 13 15 </var>
    <var id="x72"> 3 5 6 8 </var>
    <var id="x73"> 3 5 12 13 15 </var>
    <var id="x74"> 3 5 12 </var>
    <var id="x75"> 2 3 5 6 13 </var>
    <var id="x76"> 2 5 8 12 </var>
    <var id="x77"> 2 6 13 15 </var>
    <var id="x78"> 2 8 12 15 </var>
    <var id="x79"> 5 6 13 15 </var>
    <var id="x80"> 0 5 13..15 </var>
    <var id="x81"> 2 3 13 14 17 </var>
    <var id="x82"> 0 5 13 </var>
    <var id="x83"> 0 3 5 </var>
    <var id="x84"> 3 5 13 15 </var>
    <var id="x85"> 3 5 14 17 </var>
    <var id="x86"> 2 5 13..15 </var>
    <var id="x87"> 0 2 13 15 17 </var>
    <var id="x88"> 0 5 </var>
    <var id="x89"> 3 6 17 </var>
    <var id="x90"> 0 5 6 </var>
    <var id="x91"> 0 6..8 </var>
    <var id="x92"> 5 9 </var>
    <var id="x93"> 3 5 6 17 </var>
    <var id="x94"> 8 9 17 </var>
    <var id="x95"> 6..8 17 </var>
    <var id="x96"> 0 11 13..15 </var>
    <var id="x97"> 11 13 14 17 </var>
    <var id="x98"> 0 14 </var>
    <var id="x99"> 11 13 15 </var>
    <var id="x100"> 9 11 14 17 </var>
    <var id="x101"> 9 15 17 </var>
    <var id="x102"> 11 15 17 </var>
    <var id="x103"> 2 3 14 </var>
    <var id="x104"> 2 5 9 </var>
    <var id="x105"> 2 8 10 14 </var>
    <var id="x106"> 2 5 9 10 14 </var>
    <var id="x107"> 2 3 5 8 10 </var>
    <var id="x108"> 2 9 10 </var>
    <var id="x109"> 5 9 14 </var>
    <var id="x110"> 5 13 17 </var>
    <var id="x111"> 3 5 6 </var>
    <var id="x112"> 5 13 </var>
    <var id="x113"> 3 5 11 17 </var>
    <var id="x114"> 3..6 11 13 17 </var>
    <var id="x115"> 4 5 </var>
    <var id="x116"> 4 17 </var>
    <var id="x117"> 2 13 </var>
    <var id="x118"> 2 8 10 11 13 </var>
    <var id="x119"> 4 5 10 13 </var>
    <var id="x120"> 2 5 7 13 </var>
    <var id="x121"> 2 7 8 10 </var>
    <var id="x122"> 5 10 11 </var>
    <var id="x123"> 2 5 10 13 </var>
    <var id="x124"> 7 8 11 </var>
    <var id="x125"> 0 5 10 14 </var>
    <var id="x126"> 6 14 17 </var>
    <var id="x127"> 0 5 6 8 10 </var>
    <var id="x128"> 5 10 14 17 </var>
    <var id="x129"> 5 8 10 17 </var>
    <var id="x130"> 4..6 17 </var>
    <var id="x131"> 0 4 5 8 </var>
    <var id="x132"> 5 6 14 </var>
    <var id="x133"> 0 5 14 15 </var>
    <var id="x134"> 2 8 14 </var>
    <var id="x135"> 0 5 12 </var>
    <var id="x136"> 5 12 15 </var>
    <var id="x137"> 0 8 9 14 15 </var>
    <var id="x138"> 5 9 12 14 </var>
    <var id="x139"> 2 5 8 12 </var>
    <var id="x140"> 2 5 </var>
  </variables>
  <constraints>
    <group>
      <allDifferent> %... </allDifferent>
      <args> x0 x1 x2 x3 x4 x5 x6 x7 </args>
      <args> x8 x9 x10 x11 x12 x13 x14 x15 </args>
      <args> x16 x17 x18 x19 x20 x21 x22 x23 </args>
      <args> x24 x25 x26 x27 x28 x29 x30 x31 </args>
      <args> x32 x33 x34 x35 x36 x37 x38 x39 </args>
      <args> x40 x41 x42 x43 x44 x45 x46 x47 </args>
      <args> x48 x49 x50 x51 x52 x53 x54 x55 </args>
      <args> x56 x57 x58 x59 x60 x61 x62 x63 </args>
      <args> x64 x65 x66 x67 x68 x69 x70 x71 </args>
      <args> x72 x73 x74 x75 x76 x77 x78 x79 </args>
      <args> x80 x81 x82 x83 x84 x85 x86 x87 </args>
      <args> x88 x89 x90 x91 x92 x93 x94 x95 </args>
      <args> x96 x97 x98 x99 x100 x101 x102 </args>
      <args> x103 x104 x105 x106 x107 x108 x109 </args>
      <args> x110 x111 x112 x113 x114 x115 x116 </args>
      <args> x117 x118 x119 x120 x121 x122 x123 x124 </args>
      <args> x125 x126 x127 x128 x129 x130 x131 x132 </args>
      <args> x133 x134 x135 x136 x137 x138 x139 x140 </args>
      <args> x32 x40 x80 x88 x96 x125 x133 </args>
      <args> x16 x48 x56 x64 x89 x103 x117 x126 </args>
      <args> x0 x17 x41 x65 x81 x97 x118 x134 </args>
      <args> x8 x24 x33 x82 x90 x119 x135 </args>
      <args> x1 x9 x34 x42 x66 x104 x110 x120 </args>
      <args> x2 x10 x35 x49 x91 x98 x105 x121 </args>
      <args> x25 x43 x50 x57 x72 x83 x111 x127 </args>
      <args> x3 x18 x36 x58 x73 x84 x99 x136 </args>
      <args> x4 x11 x19 x26 x51 x59 x67 x137 </args>
      <args> x52 x68 x74 x85 x100 x122 x128 x138 </args>
      <args> x27 x37 x69 x86 x92 x106 x112 x123 </args>
      <args> x12 x20 x60 x70 x107 x113 x129 x139 </args>
      <args> x13 x28 x53 x75 x93 x114 x130 x140 </args>
      <args> x5 x21 x29 x38 x44 x76 x115 x131 </args>
      <args> x14 x22 x45 x54 x61 x77 x87 x108 </args>
      <args> x15 x30 x39 x46 x78 x94 x101 x116 </args>
      <args> x6 x23 x47 x62 x71 x79 x109 x132 </args>
      <args> x7 x31 x55 x63 x95 x102 x124 </args>
    </group>
  </constraints>
</instance>

